% [0,5]3[3,8]
%   1-----2
%   |  0  |  
%  2|10  2|2  (values outside edges represent the travel time, and values inside are distance)
%   |  4  |
%   4-----3
%[8,10]3[5,10](the numbers in the corners represents the upper and lower bounds for each node [lb,ub])

% shortest possible path is 1-4 length 2
% (all paths are possible)
N = 4;
M = 4;
Edge_Start = [1,2,3,1];
Edge_End = [2,3,4,4];
L = [3,2,3,2];
T = [0,2,4,10];
Lower_Bound = [0,3,5,8];
Upper_Bound = [5,8,5,10];
Start = 1;
End = 4;
Time = 10;
